100
128
28
10
12
45
8
1
50
64
34
27
28
14
7
52
16
11
7
32
28
61
12
40
36
3
1
62
32
4
38
20
32
22
19
3
36
45
21
38
4
7
6
23
36
17
9
39
64
4
5
62
30
19
38
4
53
17
3
51
45
48
16
58
57
43
60
54
10
13
38
34
12
33
5
53
48
7
34
50
50
26
46
31
61
44
41
4
20
56
58
39
36
44
13
7
25
2
19
60
9
8